








































































43 52 
38 62 
57 41 
28 7 
6 15 
0 12 
24 61 
40 27 
51 10 
22 60 
75 49 
45 5 
35 20 
14 36 
53 55 
48 39 
11 42 
1 18 
19 69 
54 26 

16 2 
8 59 
65 32 
9 76 
29 67 
47 17 
30 31 
13 66 
34 4 
72 63 
37 74 
50 70 
21 23 
71 33 


56 64 
3 58 
73 25 
46 
68 44 
